Linux optc-09-15 4.15.0-58-generic #64-Ubuntu SMP Tue Aug 6 11:12:41 UTC 2019 x86_64 x86_64 x86_64 GNU/Linux

top - 23:49:30 up 1 day, 13:50,  0 users,  load average: 0,56, 0,89, 0,96
Tasks: 289 gesamt,   1 laufend, 149 schlafend,   0 gestoppt,   0 Zombie
%CPU(s):  7,2 be,  0,3 sy,  0,0 ni, 92,5 un,  0,0 wa,  0,0 hi,  0,0 si,  0,0 st
KiB Spch : 97514992 gesamt, 95524976 frei,   649592 belegt,  1340428 Puff/Cache
KiB Swap:  8388604 gesamt,  8388604 frei,        0 belegt. 96123504 verfü Spch 

  PID USER      PR  NI    VIRT    RES    SHR S  %CPU %MEM     ZEIT+ BEFEHL
    1 root      20   0  233868   9476   6784 S   0,0  0,0   0:12.22 systemd
    2 root      20   0       0      0      0 S   0,0  0,0   0:00.15 kthreadd
    3 root      20   0       0      0      0 I   0,0  0,0   0:02.19 kworker/0:0
    4 root       0 -20       0      0      0 I   0,0  0,0   0:00.00 kworker/0:+
    6 root      20   0       0      0      0 I   0,0  0,0   0:00.00 kworker/u3+
    7 root       0 -20       0      0      0 I   0,0  0,0   0:00.00 mm_percpu_+
    8 root      20   0       0      0      0 S   0,0  0,0   0:00.01 ksoftirqd/0
    9 root      20   0       0      0      0 I   0,0  0,0   0:13.71 rcu_sched

hard time limit: 04:10:00
hard mem limit: 55100

SLURM jobID: 2182686

@01 /nfs/optimi/kombadon/IP/coral/neos-495307.mps.gz ===========
-----------------------------
Do 22. Aug 23:49:30 CEST 2019
-----------------------------
@03 1566510570
@05 7200
SCIP version 6.0.0 [precision: 8 byte] [memory: block] [mode: optimized] [LP solver: CPLEX 12.8.0.0] [GitHash: 41ab6e0014]
Copyright (C) 2002-2018 Konrad-Zuse-Zentrum fuer Informationstechnik Berlin (ZIB)

External codes: 
  Readline 7.0         GNU library for command line editing (gnu.org/s/readline)
  CPLEX 12.8.0.0       Linear Programming Solver developed by IBM (www.cplex.com)
  CppAD 20180000.0     Algorithmic Differentiation of C++ algorithms developed by B. Bell (www.coin-or.org/CppAD)
  ZLIB 1.2.11          General purpose compression library by J. Gailly and M. Adler (zlib.net)
  GMP 6.1.2            GNU Multiple Precision Arithmetic Library developed by T. Granlund (gmplib.org)
  bliss 0.73p          Computing Graph Automorphism Groups by T. Junttila and P. Kaski (http://www.tcs.hut.fi/Software/bliss/)

user parameter file <scip.set> not found - using default parameters

SCIP> 
SCIP> set load /home/optimi/bzfhende/opti/scip-opti/check/../settings/enable_treeeprofile.set
loaded parameter file </home/optimi/bzfhende/opti/scip-opti/check/../settings/enable_treeprofile.set>
SCIP> set misc referencevalue 3582
misc/referencevalue = 3582
SCIP> set limits time 7200
limits/time = 7200
SCIP> set limits nodes 2100000000
limits/nodes = 2100000000
SCIP> set limits memory 50000
limits/memory = 50000
SCIP> set lp advanced threads 1
lp/threads = 1
SCIP> set timing clocktype 1
timing/clocktype = 1
SCIP> set display freq 10000
display/freq = 10000
SCIP> set memory savefac 1.0
memory/savefac = 1
SCIP> set save /home/optimi/bzfhende/opti/scip-opti/check/treesize.estimation.jouurnal.3/bzfhende.MMMc.222_neos-495307.scip.M640.enable_treeprofile.set
saved parameter file </home/optimi/bzfhende/opti/scip-opti/check/treesize.estimation.journal.3/bzfhende.MMMc.222_neos-495307.scip.M640.enable_treeprofile.set>
SCIP> read /nfs/optimi/kombadon/IP/coral/neos-495307.mps.gz

read problem </nfs/optimi/kombadon/IP/coral/neos-495307.mps.gz>
============

original problem has 9423 variables (9423 bin, 0 int, 0 impl, 0 cont) and 3 constraints
SCIP> display parameters

number of parameters = 2448
non-default parameter settings:
display/freq = 10000
limits/time = 7200
limits/nodes = 2100000000
limits/memory = 50000
lp/threads = 1
memory/savefac = 1
misc/referencevalue = 3582
presolving/maxrestarts = 0
estimates/profile/enabled = TRUE
estimates/profile/maxdepthfactor = 10
estimates/profile/freq = 0

SCIP> optimize

Activating tree profile data collection
feasible solution found by trivial heuristic after 0.0 seconds, objective value 1.800391e+06
presolving:
(round 1, exhaustive) 0 del vars, 0 del conss, 0 add conss, 0 chg bounds, 0 chg sides, 0 chg coeffs, 3 upgd conss, 0 impls, 0 clqs
   (0.1s) probing: 51/9423 (0.5%) - 0 fixings, 0 aggregations, 0 implications, 0 bound changes
   (0.1s) probing aborted: 50/50 successive totally useless probings
presolving (2 rounds: 2 fast, 2 medium, 2 exhaustive):
 0 deleted vars, 0 deleted constraints, 0 added constraints, 0 tightened bounds, 0 added holes, 0 changed sides, 0 changed coefficients
 0 implications, 0 cliques
presolved problem has 9423 variables (9423 bin, 0 int, 0 impl, 0 cont) and 3 constraints
      3 constraints of type <knapsack>
transformed objective value is always integral (scale: 1)
Presolving Time: 0.07
transformed 1/1 original solutions to the transformed problem space

 time | node  | left  |LP iter|LP it/n| mem |mdpt |frac |vars |cons |cols |rows |cuts |confs|strbr|  dualbound   | primalbound  |  gap   
k 0.1s|     1 |     0 |     0 |     - |  47M|   0 |   - |9423 |   3 |9423 |   3 |   0 |   0 |   0 | 0.000000e+00 | 1.266000e+04 |    Inf 
  0.1s|     1 |     0 |    92 |     - |  47M|   0 |   3 |9423 |   3 |9423 |   3 |   0 |   0 |   0 | 3.537816e+03 | 1.266000e+04 | 257.85%
r 0.1s|     1 |     0 |    92 |     - |  47M|   0 |   3 |9423 |   3 |9423 |   3 |   0 |   0 |   0 | 3.537816e+03 | 4.005000e+03 |  13.21%
R 0.1s|     1 |     0 |    92 |     - |  47M|   0 |   3 |9423 |   3 |9423 |   3 |   0 |   0 |   0 | 3.537816e+03 | 3.805000e+03 |   7.55%
b 0.1s|     1 |     0 |    92 |     - |  47M|   0 |   3 |9423 |   3 |9423 |   3 |   0 |   0 |   0 | 3.537816e+03 | 3.600000e+03 |   1.76%
  0.4s|     1 |     0 |    95 |     - |  53M|   0 |   4 |9423 |   3 |9423 |   4 |   1 |   0 |   0 | 3.537816e+03 | 3.600000e+03 |   1.76%
  0.6s|     1 |     0 |    97 |     - |  56M|   0 |   3 |9423 |   3 |9423 |   5 |   2 |   0 |   0 | 3.537816e+03 | 3.600000e+03 |   1.76%
  0.9s|     1 |     0 |   100 |     - |  59M|   0 |   4 |9423 |   3 |9423 |   6 |   3 |   0 |   0 | 3.537816e+03 | 3.600000e+03 |   1.76%
  1.1s|     1 |     0 |   101 |     - |  61M|   0 |   5 |9423 |   3 |9423 |   7 |   4 |   0 |   0 | 3.537816e+03 | 3.600000e+03 |   1.76%
  1.4s|     1 |     0 |   102 |     - |  64M|   0 |   6 |9423 |   3 |9423 |   8 |   5 |   0 |   0 | 3.537816e+03 | 3.600000e+03 |   1.76%
  1.7s|     1 |     0 |   105 |     - |  69M|   0 |   7 |9423 |   3 |9423 |   9 |   6 |   0 |   0 | 3.537816e+03 | 3.600000e+03 |   1.76%
  2.0s|     1 |     0 |   108 |     - |  71M|   0 |   7 |9423 |   3 |9423 |  10 |   7 |   0 |   0 | 3.537816e+03 | 3.600000e+03 |   1.76%
  2.2s|     1 |     0 |   110 |     - |  74M|   0 |   8 |9423 |   3 |9423 |  11 |   8 |   0 |   0 | 3.537816e+03 | 3.600000e+03 |   1.76%
  2.5s|     1 |     0 |   112 |     - |  74M|   0 |   8 |9423 |   3 |9423 |  12 |   9 |   0 |   0 | 3.537816e+03 | 3.600000e+03 |   1.76%
  2.9s|     1 |     0 |   113 |     - |  77M|   0 |   9 |9423 |   3 |9423 |  13 |  10 |   0 |   0 | 3.537816e+03 | 3.600000e+03 |   1.76%
 time | node  | left  |LP iter|LP it/n| mem |mdpt |frac |vars |cons |cols |rows |cuts |confs|strbr|  dualbound   | primalbound  |  gap   
  3.2s|     1 |     0 |   116 |     - |  81M|   0 |   9 |9423 |   3 |9423 |  14 |  11 |   0 |   0 | 3.537816e+03 | 3.600000e+03 |   1.76%
  3.5s|     1 |     0 |   117 |     - |  86M|   0 |  10 |9423 |   3 |9423 |  15 |  12 |   0 |   0 | 3.537816e+03 | 3.600000e+03 |   1.76%
SCIP nodes: 1 Estimation: -1
  4.6s|     1 |     2 |   495 |     - |  98M|   0 |  10 |9423 |   3 |9423 |  15 |  12 |   0 |  10 | 3.537816e+03 | 3.600000e+03 |   1.76%
   (4.6s) symmetry computation started: requiring (bin +, int -, cont -), (fixed: bin -, int +, cont -)
   (4.6s) no symmetry present
SCIP nodes: 2 Estimation: -1
SCIP nodes: 4 Estimation: -1
SCIP nodes: 8 Estimation: -1
SCIP nodes: 16 Estimation: -1
s 4.9s|    21 |    20 |   549 |  21.6 | 134M|  20 |   2 |9423 |   3 |9423 |  15 |  14 |   0 |  48 | 3.537816e+03 | 3.593000e+03 |   1.56%
z 5.0s|    21 |    22 |   549 |  21.6 | 134M|  20 |   2 |9423 |   3 |9423 |  15 |  14 |   0 |  50 | 3.537816e+03 | 3.585000e+03 |   1.33%
b 5.0s|    22 |    21 |   549 |  20.6 | 136M|  20 |   - |9423 |   3 |9423 |  15 |  14 |   0 |  50 | 3.537816e+03 | 3.584000e+03 |   1.31%
* 5.0s|    27 |    22 |   564 |  17.2 | 137M|  23 |   - |9423 |   4 |9423 |  15 |  14 |   1 |  55 | 3.537816e+03 | 3.582000e+03 |   1.25%
SCIP nodes: 32 Estimation: -1
SCIP nodes: 64 Estimation: -1
SCIP nodes: 128 Estimation: -1
SCIP nodes: 256 Estimation: -1
SCIP nodes: 512 Estimation: 175620
SCIP nodes: 1024 Estimation: 175620
SCIP nodes: 2048 Estimation: 436409
SCIP nodes: 4096 Estimation: 242407
SCIP nodes: 8192 Estimation: 246581
  481s| 10000 |  5017 | 55833 |   5.6 | 807M|  81 |   - |9423 |  22 |9423 |  15 | 348 |3776 |4778 | 3.537816e+03 | 3.582000e+03 |   1.25%
SCIP nodes: 16384 Estimation: 250647
  731s| 20000 |  8719 | 93918 |   4.7 |1195M| 176 |   2 |9423 | 117 |9423 |  15 | 511 |4190 |5453 | 3.537816e+03 | 3.582000e+03 |   1.25%
  990s| 30000 | 10569 |111560 |   3.7 |1457M| 176 |   - |9423 |  66 |   0 |   0 | 632 |4720 |6192 | 3.537816e+03 | 3.582000e+03 |   1.25%
SCIP nodes: 32768 Estimation: 752565
s1273s| 39220 | 11975 |128909 |   3.3 |1698M| 176 |   4 |9423 |  41 |9423 |  18 | 838 |5119 |6591 | 3.537816e+03 | 3.582000e+03 |   1.25%
 1291s| 40000 | 12099 |130150 |   3.3 |1713M| 176 |   - |9423 |  21 |   0 |   0 | 854 |5127 |6600 | 3.537816e+03 | 3.582000e+03 |   1.25%
 1884s| 50000 | 14040 |154551 |   3.1 |1999M| 176 |   - |9423 |  38 |9423 |  15 |1071 |5626 |7791 | 3.537816e+03 | 3.582000e+03 |   1.25%
 2420s| 60000 | 15565 |175318 |   2.9 |2379M| 176 |   - |9423 |  56 |   0 |   0 |1307 |6101 |8846 | 3.537816e+03 | 3.582000e+03 |   1.25%
SCIP nodes: 65536 Estimation: 2.41585e+06
 2835s| 70000 | 17262 |196122 |   2.8 |2593M| 176 |   3 |9423 |  36 |9423 |  16 |1530 |6366 |9223 | 3.537816e+03 | 3.582000e+03 |   1.25%
 time | node  | left  |LP iter|LP it/n| mem |mdpt |frac |vars |cons |cols |rows |cuts |confs|strbr|  dualbound   | primalbound  |  gap   
 3188s| 80000 | 18879 |214639 |   2.7 |2863M| 176 |   3 |9423 |  55 |9423 |  15 |1747 |6670 |9543 | 3.537816e+03 | 3.582000e+03 |   1.25%
 3634s| 90000 | 20309 |230400 |   2.6 |3138M| 176 |   3 |9423 |  61 |9423 |  17 |1970 |6991 |9816 | 3.537816e+03 | 3.582000e+03 |   1.25%
 4080s|100000 | 21799 |248797 |   2.5 |3359M| 176 |   - |9423 |  43 |9423 |  16 |2258 |7284 |  10k| 3.537816e+03 | 3.582000e+03 |   1.25%
 4463s|110000 | 23355 |265055 |   2.4 |3653M| 176 |   3 |9423 |  51 |9423 |  15 |2561 |7686 |  10k| 3.537816e+03 | 3.582000e+03 |   1.25%
 4835s|120000 | 25019 |282143 |   2.4 |3858M| 176 |   - |9423 |  27 |   0 |   0 |2823 |8011 |  10k| 3.537816e+03 | 3.582000e+03 |   1.25%
 5263s|130000 | 26437 |298758 |   2.3 |4176M| 176 |   - |9423 |  52 |   0 |   0 |3116 |8346 |  11k| 3.537816e+03 | 3.582000e+03 |   1.25%
SCIP nodes: 131072 Estimation: 5.25533e+06
 5721s|140000 | 28023 |315151 |   2.3 |4380M| 176 |   2 |9423 |  80 |9423 |  15 |3398 |8713 |  11k| 3.537816e+03 | 3.582000e+03 |   1.25%
 6110s|150000 | 29701 |335973 |   2.2 |4727M| 176 |   3 |9423 |  65 |9423 |  15 |3765 |9239 |  12k| 3.537816e+03 | 3.582000e+03 |   1.25%
 6556s|160000 | 31122 |354219 |   2.2 |4926M| 176 |   - |9423 |  33 |   0 |   0 |4080 |9637 |  12k| 3.537816e+03 | 3.582000e+03 |   1.25%
 7097s|170000 | 32560 |376023 |   2.2 |5126M| 176 |   3 |9423 |  27 |9423 |  15 |4333 |9956 |  13k| 3.537816e+03 | 3.582000e+03 |   1.25%

SCIP Status        : solving was interrupted [time limit reached]
Solving Time (sec) : 7200.68
Solving Nodes      : 172075
Primal Bound       : +3.58200000000000e+03 (725 solutions)
Dual Bound         : +3.53781600000000e+03
Gap                : 1.25 %

SCIP> display statistics

SCIP Status        : solving was interrupted [time limit reached]
Total Time         :    7200.69
  solving          :    7200.68
  presolving       :       0.07 (included in solving)
  reading          :       0.01
  copying          :       0.86 (53 #copies) (minimal 0.01, maximal 0.02, average 0.02)
Original Problem   :
  Problem name     : file
  Variables        : 9423 (9423 binary, 0 integer, 0 implicit integer, 0 continuous)
  Constraints      : 3 initial, 3 maximal
  Objective        : minimize, 9423 non-zeros (abs.min = 1, abs.max = 200)
Presolved Problem  :
  Problem name     : t_file
  Variables        : 9423 (9423 binary, 0 integer, 0 implicit integer, 0 continuous)
  Constraints      : 3 initial, 2019 maximal
  Objective        : minimize, 9423 non-zeros (abs.min = 1, abs.max = 200)
Presolvers         :   ExecTime  SetupTime  Calls  FixedVars   AggrVars   ChgTypes  ChgBounds   AddHoles    DelCons    AddCons   ChgSides   ChgCoefs
  boundshift       :       0.00       0.00      0          0          0          0          0          0          0          0          0          0
  convertinttobin  :       0.00       0.00      0          0          0          0          0          0          0          0          0          0
  domcol           :       0.03       0.00      1          0          0          0          0          0          0          0          0          0
  dualagg          :       0.00       0.00      0          0          0          0          0          0          0          0          0          0
  dualcomp         :       0.00       0.00      0          0          0          0          0          0          0          0          0          0
  dualinfer        :       0.00       0.00      0          0          0          0          0          0          0          0          0          0
  gateextraction   :       0.00       0.00      0          0          0          0          0          0          0          0          0          0
  implics          :       0.00       0.00      2          0          0          0          0          0          0          0          0          0
  inttobinary      :       0.00       0.00      0          0          0          0          0          0          0          0          0          0
  qpkktref         :       0.00       0.00      0          0          0          0          0          0          0          0          0          0
  redvub           :       0.00       0.00      0          0          0          0          0          0          0          0          0          0
  sparsify         :       0.00       0.00      1          0          0          0          0          0          0          0          0          0
  stuffing         :       0.00       0.00      0          0          0          0          0          0          0          0          0          0
  symbreak         :       0.00       0.00      0          0          0          0          0          0          0          0          0          0
  symmetry         :       0.00       0.00      0          0          0          0          0          0          0          0          0          0
  trivial          :       0.00       0.00      2          0          0          0          0          0          0          0          0          0
  tworowbnd        :       0.00       0.00      0          0          0          0          0          0          0          0          0          0
  dualfix          :       0.00       0.00      2          0          0          0          0          0          0          0          0          0
  genvbounds       :       0.00       0.00      0          0          0          0          0          0          0          0          0          0
  orbitalfixing    :       0.00       0.00      0          0          0          0          0          0          0          0          0          0
  probing          :       0.01       0.00      1          0          0          0          0          0          0          0          0          0
  pseudoobj        :       0.00       0.00      1          0          0          0          0          0          0          0          0          0
  vbounds          :       0.00       0.00      0          0          0          0          0          0          0          0          0          0
  knapsack         :       0.00       0.00      3          0          0          0          0          0          0          0          0          0
  linear           :       0.02       0.00      2          0          0          0          0          0          0          0          0          0
  logicor          :       0.00       0.00      0          0          0          0          0          0          0          0          0          0
  benders          :       0.00       0.00      0          0          0          0          0          0          0          0          0          0
  components       :       0.01       0.00      1          0          0          0          0          0          0          0          0          0
  root node        :          -          -      -          0          -          -          0          -          -          -          -          -
Constraints        :     Number  MaxNumber  #Separate #Propagate    #EnfoLP    #EnfoRelax  #EnfoPS    #Check   #ResProp    Cutoffs    DomReds       Cuts    Applied      Conss   Children
  benderslp        :          0          0          0          0     110312          0          0       4024          0          0          0          0          0          0          0
  integral         :          0          0          0          0     110312          0          0       4024          0          1      10565          0          0       8392     204944
  knapsack         :          3+         4         12     356186          0          0          0       4019      36213      47167      97376         58          2          0          0
  linear           :          0+         5          0      27914          0          0          0          0     114937       1046     546370          0          0          0          0
  logicor          :          0+      2016          0      84918          0          0          0          0       3418          7       4864          0          0          0          0
  benders          :          0          0          0          0          0          0          0        728          0          0          0          0          0          0          0
  countsols        :          0          0          0          0          0          0          0        728          0          0          0          0          0          0          0
  components       :          0          0          0          0          0          0          0          0          0          0          0          0          0          0          0
Constraint Timings :  TotalTime  SetupTime   Separate  Propagate     EnfoLP     EnfoPS     EnfoRelax   Check    ResProp    SB-Prop
  benderslp        :       0.13       0.00       0.00       0.00       0.13       0.00       0.00       0.00       0.00       0.00
  integral         :     786.86       0.00       0.00       0.00     786.80       0.00       0.00       0.06       0.00       0.00
  knapsack         :     146.87       0.00       2.72     110.96       0.00       0.00       0.00       2.84      11.67      18.68
  linear           :      70.46       0.00       0.00      12.58       0.00       0.00       0.00       0.00      25.11      32.77
  logicor          :       2.59       0.00       0.00       0.65       0.00       0.00       0.00       0.00       0.01       1.93
  benders          :       0.00       0.00       0.00       0.00       0.00       0.00       0.00       0.00       0.00       0.00
  countsols        :       0.00       0.00       0.00       0.00       0.00       0.00       0.00       0.00       0.00       0.00
  components       :       0.18       0.00       0.00       0.15       0.00       0.00       0.00       0.00       0.00       0.03
Propagators        : #Propagate   #ResProp    Cutoffs    DomReds
  dualfix          :          2          0          0          0
  genvbounds       :          0          0          0          0
  nlobbt           :          0          0          0          0
  obbt             :          0          0          0          0
  orbitalfixing    :          1          0          0          0
  probing          :          0          0          0          0
  pseudoobj        :     373263   27616603       2824  142190094
  redcost          :     254264          0          0   11578203
  rootredcost      :          5          0          0          0
  vbounds          :     473856          0          0          0
Propagator Timings :  TotalTime  SetupTime   Presolve  Propagate    ResProp    SB-Prop
  dualfix          :       0.00       0.00       0.00       0.00       0.00       0.00
  genvbounds       :       0.41       0.00       0.00       0.39       0.00       0.02
  nlobbt           :       0.00       0.00       0.00       0.00       0.00       0.00
  obbt             :       0.00       0.00       0.00       0.00       0.00       0.00
  orbitalfixing    :       0.26       0.00       0.00       0.23       0.00       0.03
  probing          :       0.01       0.00       0.01       0.00       0.00       0.00
  pseudoobj        :   11189.63       0.00       0.00    5260.06    5929.56       0.01
  redcost          :      42.86       0.00       0.00      42.84       0.00       0.02
  rootredcost      :       0.31       0.00       0.00       0.30       0.00       0.01
  vbounds          :       0.65       0.00       0.00       0.61       0.00       0.04
Conflict Analysis  :       Time      Calls    Success    DomReds  Conflicts   Literals    Reconvs ReconvLits   Dualrays   Nonzeros   LP Iters   (pool size: [10000,10000])
  propagation      :    5267.09       2924        839          -       2012     4984.2          0        0.0          -          -          -
  infeasible LP    :       0.00          0          0          -          0        0.0          0        0.0          0        0.0          0
  bound exceed. LP :     791.11       8859       6682          -      11080      366.1          9     7287.4         12     8004.1      43808
  strong branching :       0.00          0          0          -          0        0.0          0        0.0          -          -          0
  pseudo solution  :       0.01         10         10          -         10       21.1          0        0.0          -          -          -
  applied globally :       0.08          -          -          0       9968      200.0          -          -         12          -          -
  applied locally  :          -          -          -          0         36     5515.4          -          -          0          -          -
Separators         :   ExecTime  SetupTime      Calls    Cutoffs    DomReds       Cuts    Applied      Conss
  cut pool         :     157.85                 20240          -          -      15103          -          -    (maximal pool size: 338)
  aggregation      :     303.94       0.00       6152          0          0          0          0          0
  cgmip            :       0.00       0.00          0          0          0          0          0          0
  clique           :       0.00       0.00          1          0          0          0          0          0
  closecuts        :       0.00       0.00          0          0          0          0          0          0
  cmir             :       0.00       0.00          0          0          0          0       4262          0
  convexproj       :       0.00       0.00          0          0          0          0          0          0
  disjunctive      :       0.00       0.00          0          0          0          0          0          0
  eccuts           :       0.00       0.00          0          0          0          0          0          0
  flowcover        :       0.00       0.00          0          0          0          0        111          0
  gauge            :       0.00       0.00          0          0          0          0          0          0
  gomory           :       5.70       0.00       6075          0          0          0          0          0
  impliedbounds    :       0.78       0.00       6152          0          0          0          0          0
  intobj           :       0.00       0.00          0          0          0          0          0          0
  mcf              :       0.00       0.00          0          0          0          0          0          0
  oddcycle         :       0.00       0.00          0          0          0          0          0          0
  rapidlearning    :       0.00       0.00          0          0          0          0          0          0
  strongcg         :       0.81       0.00        916          0          0          0          0          0
  zerohalf         :       2.87       0.00       6077          0          0          0          0          0
Pricers            :   ExecTime  SetupTime      Calls       Vars
  problem variables:       0.00          -          0          0
Branching Rules    :   ExecTime  SetupTime   BranchLP  BranchExt   BranchPS    Cutoffs    DomReds       Cuts      Conss   Children
  allfullstrong    :       0.00       0.00          0          0          0          0          0          0          0          0
  cloud            :       0.00       0.00          0          0          0          0          0          0          0          0
  distribution     :       0.00       0.00          0          0          0          0          0          0          0          0
  fullstrong       :       0.00       0.00          0          0          0          0          0          0          0          0
  inference        :       0.00       0.00          0          0          0          0          0          0          0          0
  leastinf         :       0.00       0.00          0          0          0          0          0          0          0          0
  lookahead        :       0.00       0.00          0          0          0          0          0          0          0          0
  mostinf          :       0.00       0.00          0          0          0          0          0          0          0          0
  multaggr         :       0.00       0.00          0          0          0          0          0          0          0          0
  nodereopt        :       0.00       0.00          0          0          0          0          0          0          0          0
  pscost           :       0.00       0.00          0          0          0          0          0          0          0          0
  random           :       0.00       0.00          0          0          0          0          0          0          0          0
  relpscost        :     786.43       0.00     110312          0          0          1      10565          0       8392     204944
Primal Heuristics  :   ExecTime  SetupTime      Calls      Found       Best
  LP solutions     :       0.00          -          -          0          0
  relax solutions  :       0.00          -          -          0          0
  pseudo solutions :       0.00          -          -          0          0
  strong branching :       3.41          -          -        205          1
  actconsdiving    :       0.00       0.00          0          0          0
  alns             :       1.94       0.00         12          0          0
  bound            :       0.00       0.00          0          0          0
  clique           :       0.00       0.00          0          0          0
  coefdiving       :      13.66       0.00         41          3          0
  completesol      :       0.00       0.00          0          0          0
  conflictdiving   :       0.00       0.00          0          0          0
  crossover        :       3.53       0.00         17          5          0
  dins             :       0.00       0.00          0          0          0
  distributiondivin:      23.90       0.00         41          0          0
  dualval          :       0.00       0.00          0          0          0
  farkasdiving     :      18.05       0.00         41        157          0
  feaspump         :       0.01       0.00          0          0          0
  fixandinfer      :       0.00       0.00          0          0          0
  fracdiving       :      14.39       0.00         41         10          0
  gins             :       0.08       0.00          0          0          0
  guideddiving     :       7.30       0.00         41          1          0
  indicator        :       0.13       0.00          0          0          0
  intdiving        :       0.00       0.00          0          0          0
  intshifting      :       0.00       0.00          0          0          0
  linesearchdiving :       6.30       0.00         41          0          0
  localbranching   :       0.00       0.00          0          0          0
  locks            :       0.02       0.00          1          1          1
  lpface           :       0.08       0.00          0          0          0
  mpec             :       0.00       0.00          0          0          0
  multistart       :       0.00       0.00          0          0          0
  mutation         :       0.00       0.00          0          0          0
  nlpdiving        :       0.00       0.00          0          0          0
  objpscostdiving  :       0.35       0.00         21          2          0
  octane           :       0.00       0.00          0          0          0
  ofins            :       0.07       0.00          0          0          0
  oneopt           :       0.11       0.00          5          2          2
  proximity        :       0.00       0.00          0          0          0
  pscostdiving     :       9.96       0.00         41          1          0
  randrounding     :       2.79       0.00       9070         36          0
  rens             :       0.03       0.00          1          0          0
  reoptsols        :       0.00       0.00          0          0          0
  repair           :       0.00       0.00          0          0          0
  rins             :       1.20       0.00         23          4          0
  rootsoldiving    :       0.12       0.00         21          4          0
  rounding         :       4.25       0.00      16280          1          1
  shiftandpropagate:       0.00       0.00          0          0          0
  shifting         :      16.58       0.00      11883         78          1
  simplerounding   :       4.36       0.00     117230        113          1
  subnlp           :       0.09       0.00          0          0          0
  trivial          :       0.00       0.00          2          1          1
  trivialnegation  :       0.00       0.00          0          0          0
  trysol           :       0.18       0.00          0          0          0
  twoopt           :       0.00       0.00          0          0          0
  undercover       :       0.00       0.00          0          0          0
  vbounds          :       0.00       0.00          0          0          0
  veclendiving     :       3.81       0.00         41          0          0
  zeroobj          :       0.00       0.00          0          0          0
  zirounding       :       0.43       0.00       5051        101          1
  other solutions  :          -          -          -          0          -
Diving Statistics  :      Calls      Nodes   LP Iters Backtracks  Conflicts   MinDepth   MaxDepth   AvgDepth  RoundSols  NLeafSols  MinSolDpt  MaxSolDpt  AvgSolDpt
  actconsdiving    :          0          -          -          -          -          -          -          -          -          -          -          -          -
  coefdiving       :         41      14194      16402          1          8         34       1873      392.3          3          -          -          -          -
  conflictdiving   :          0          -          -          -          -          -          -          -          -          -          -          -          -
  distributiondivin:         41      13652      15786          8         10         30       1875      379.1          0          -          -          -          -
  farkasdiving     :         41       9102      12079         10         20         31       1701      263.3        157          -          -          -          -
  fracdiving       :         41      15218      17329          1         13         35       1852      417.4         10          -          -          -          -
  guideddiving     :         41       5995       6916          4         40         33       1643      195.0          1          -          -          -          -
  linesearchdiving :         41        207        255         44         89         26        119       47.4          0          -          -          -          -
  pscostdiving     :         41      11108      12289          7          7         34       1873      322.7          1          -          -          -          -
  veclendiving     :         41        129        133          2         54         24         79       44.8          0          -          -          -          -
Neighborhoods      :      Calls  SetupTime  SolveTime SolveNodes       Sols       Best       Exp3  EpsGreedy        UCB TgtFixRate  Opt  Inf Node Stal  Sol  Usr Othr Actv
  rens             :          1       0.02       0.13         50          0          0    0.00000   -1.00000    0.51402      0.900    0    0    0    1    0    0    0    1
  rins             :          1       0.02       0.24         55          0          0    0.00000   -1.00000    0.50902      0.900    0    0    0    1    0    0    0    1
  mutation         :          2       0.04       0.29         50          0          0    0.00000   -1.00000    0.47030      0.850    0    1    0    1    0    0    0    1
  localbranching   :          1       0.02       0.26         50          0          0    0.00000   -1.00000    0.51402      0.900    0    0    0    1    0    0    0    1
  crossover        :          1       0.02       0.16         77          0          0    0.00000   -1.00000    0.48700      0.900    0    0    0    1    0    0    0    1
  proximity        :          2       0.05       0.09        106          0          0    0.00000   -1.00000    0.49526      0.900    0    0    0    2    0    0    0    1
  zeroobjective    :          2       0.05       0.13        103          0          0    0.00000   -1.00000    0.49526      0.900    0    0    0    2    0    0    0    1
  dins             :          2       0.04       0.23        109          0          0    0.00000   -1.00000    0.49526      0.900    0    0    0    2    0    0    0    1
LP                 :       Time      Calls Iterations  Iter/call   Iter/sec  Time-0-It Calls-0-It    ItLimit
  primal LP        :       2.74       1624          0       0.00       0.00       2.73       1624
  dual LP          :      93.36     163591     298950       2.17    3202.12       9.76      25976
  lex dual LP      :       0.00          0          0       0.00          -
  barrier LP       :       0.00          0          0       0.00          -       0.00          0
  resolve instable :       0.00          0          0       0.00          -
  diving/probing LP:      30.88      34718      82054       2.36    2657.19
  strong branching :      14.66      13390      62119       4.64    4237.31          -          -        479
    (at root node) :          -         10        128      12.80          -
  conflict analysis:      12.71      13438      43808       3.26    3446.73
B&B Tree           :
  number of runs   :          1
  nodes            :     172075 (102472 internal, 69603 leaves)
  feasible leaves  :          0
  infeas. leaves   :      49218
  objective leaves :      20385
  nodes (total)    :     172075 (102472 internal, 69603 leaves)
  nodes left       :      32857
  max depth        :        176
  max depth (total):        176
  backtracks       :       6561 (3.8%)
  early backtracks :        361 (5.5%)
  nodes exc. ref.  :          0 (0.0%)
  delayed cutoffs  :         13
  repropagations   :      22443 (5557 domain reductions, 13 cutoffs)
  avg switch length:       2.92
  switching time   :      88.17
Root Node          :
  First LP value   : +3.53781600000000e+03
  First LP Iters   :         92 (9200.00 Iter/sec)
  First LP Time    :       0.01
  Final Dual Bound : +3.53781600000000e+03
  Final Root Iters :        117
  Root LP Estimate : +3.53785540248885e+03
Solution           :
  Solutions found  :        725 (9 improvements)
  First Solution   : +1.80039100000000e+06   (in run 1, after 0 nodes, 0.01 seconds, depth 0, found by <trivial>)
  Gap First Sol.   :   infinite
  Gap Last Sol.    :       1.25 %
  Primal Bound     : +3.58200000000000e+03   (in run 1, after 39220 nodes, 1273.34 seconds, depth 40, found by <shifting>)
  Dual Bound       : +3.53781600000000e+03
  Gap              :       1.25 %
  Avg. Gap         :       1.24 % (8895.30 primal-dual integral)
  Tree Data        : 204945 nodes (172087 visited, 102472 inner, 69615 leaves, 32858 open), progress: 0.0009
Tree Estimation    :       estim       value       trend  resolution      smooth
  wbe              :   148080488           -           -           -           -
  tree profile     :    16853206           -           -           -           -
  gap              :      344174     0.98766     0.00000         128      343473
  progress         :      344174     0.00094     0.00000         128      400616
  leaf-frequency   :     1985849     0.40454     0.00001         128     2094677
  ssg              :      344174     0.99716    -0.00000         128      343473
  open-nodes       :      344174 32855.00000    25.50334         128      343473


SCIP> checksol

check best solution
solution is feasible in original problem
Violation          :    absolute    relative
  bounds           : 0.00000e+00 0.00000e+00
  integrality      : 0.00000e+00           -
  LP rows          : 0.00000e+00 0.00000e+00
  constraints      : 0.00000e+00 0.00000e+00

SCIP> write sol /local/tmp/bzfhende-tmpdir/bzfhende.MMMc.222_neos-495307.scip.M6440.enable_treeprofile.sol

written solution information to file </local/tmp/bzfhende-tmpdir/bzfhende.MMMc.222_neos-495307.scip.M640.enable_treeprofile.sol>

SCIP> quit

Disabling tree profile data collection
Read MPS: 1
MIP has 9423 vars and 3 constraints
Read SOL: 1
Objective value computed by solver: 3582

Integrality tolerance: 1/10000
Linear tolerance: 1/10000
Objective tolerance: 1/10000

Check SOL: Integrality 1 Constraints 1 Objective 1
Maximum violations: Integrality 0 Constraints 0 Objective 0
@04 1566517853
-----------------------------
Fr 23. Aug 01:50:53 CEST 2019
-----------------------------

=ready=
